(set-info :smt-lib-version 2.6)
(set-logic QF_LRA)
(set-info :source |
Fully parameterized specification and verification of a synchronizer   
circuit modeling metastability at various levels of refinement.     
A paper describing this specification, to be published in Designing     
Correct Circuits (DCC), 2006, is available from the authors.            

Geoffrey Brown, Indiana University <geobrown@cs.indiana.edu>
Lee Pike, Galois Connections, Inc. <leepike@galois.com>

Translated into CVC format by Leonardo de Moura.

This benchmark was automatically translated into SMT-LIB format from
CVC format using CVC Lite

|)
(set-info :category "industrial")
(set-info :status sat)
(declare-fun x_0 () Bool)
(declare-fun x_1 () Bool)
(declare-fun x_2 () Real)
(declare-fun x_3 () Real)
(declare-fun x_4 () Bool)
(declare-fun x_5 () Bool)
(declare-fun x_6 () Real)
(declare-fun x_7 () Real)
(declare-fun x_8 () Bool)
(declare-fun x_9 () Bool)
(declare-fun x_10 () Real)
(declare-fun x_11 () Real)
(declare-fun x_12 () Bool)
(declare-fun x_13 () Bool)
(declare-fun x_14 () Real)
(declare-fun x_15 () Real)
(declare-fun x_16 () Bool)
(declare-fun x_17 () Bool)
(declare-fun x_18 () Real)
(declare-fun x_19 () Real)
(declare-fun x_20 () Bool)
(declare-fun x_21 () Bool)
(declare-fun x_22 () Real)
(declare-fun x_23 () Real)
(declare-fun x_24 () Bool)
(declare-fun x_25 () Bool)
(declare-fun x_26 () Real)
(declare-fun x_27 () Real)
(declare-fun x_28 () Bool)
(declare-fun x_29 () Bool)
(declare-fun x_30 () Real)
(declare-fun x_31 () Real)
(declare-fun x_32 () Bool)
(declare-fun x_33 () Bool)
(declare-fun x_34 () Real)
(declare-fun x_35 () Real)
(declare-fun x_36 () Bool)
(declare-fun x_37 () Bool)
(declare-fun x_38 () Real)
(declare-fun x_39 () Real)
(declare-fun x_40 () Bool)
(declare-fun x_41 () Bool)
(declare-fun x_42 () Real)
(declare-fun x_43 () Real)
(declare-fun x_44 () Bool)
(declare-fun x_45 () Bool)
(declare-fun x_46 () Real)
(declare-fun x_47 () Real)
(declare-fun x_48 () Bool)
(declare-fun x_49 () Bool)
(declare-fun x_50 () Real)
(declare-fun x_51 () Real)
(declare-fun x_52 () Real)
(declare-fun x_53 () Real)
(declare-fun x_54 () Real)
(declare-fun x_55 () Real)
(declare-fun x_56 () Real)
(declare-fun x_57 () Real)
(declare-fun x_58 () Real)
(declare-fun x_59 () Real)
(declare-fun x_60 () Real)
(declare-fun x_61 () Real)
(declare-fun x_62 () Bool)
(declare-fun x_63 () Bool)
(declare-fun x_64 () Real)
(declare-fun x_65 () Real)
(declare-fun x_66 () Real)
(declare-fun x_67 () Real)
(declare-fun x_68 () Bool)
(declare-fun x_69 () Bool)
(declare-fun x_70 () Bool)
(declare-fun x_71 () Bool)
(declare-fun x_72 () Bool)
(declare-fun x_73 () Real)
(declare-fun x_74 () Bool)
(declare-fun x_75 () Real)
(declare-fun x_76 () Real)
(declare-fun x_77 () Real)
(declare-fun x_78 () Real)
(declare-fun x_79 () Real)
(declare-fun x_80 () Real)
(declare-fun x_81 () Real)
(declare-fun x_82 () Real)
(declare-fun x_83 () Real)
(declare-fun x_84 () Bool)
(declare-fun x_85 () Real)
(declare-fun x_86 () Bool)
(declare-fun x_87 () Bool)
(declare-fun x_88 () Real)
(declare-fun x_89 () Bool)
(declare-fun x_90 () Real)
(declare-fun x_91 () Real)
(declare-fun x_92 () Real)
(declare-fun x_93 () Real)
(declare-fun x_94 () Real)
(declare-fun x_95 () Real)
(declare-fun x_96 () Real)
(declare-fun x_97 () Real)
(declare-fun x_98 () Bool)
(declare-fun x_99 () Real)
(declare-fun x_100 () Bool)
(declare-fun x_101 () Bool)
(declare-fun x_102 () Real)
(declare-fun x_103 () Bool)
(declare-fun x_104 () Real)
(declare-fun x_105 () Real)
(declare-fun x_106 () Real)
(declare-fun x_107 () Real)
(declare-fun x_108 () Real)
(declare-fun x_109 () Real)
(declare-fun x_110 () Real)
(declare-fun x_111 () Real)
(declare-fun x_112 () Bool)
(declare-fun x_113 () Real)
(declare-fun x_114 () Bool)
(declare-fun x_115 () Bool)
(declare-fun x_116 () Real)
(declare-fun x_117 () Bool)
(declare-fun x_118 () Real)
(declare-fun x_119 () Real)
(declare-fun x_120 () Real)
(declare-fun x_121 () Real)
(declare-fun x_122 () Real)
(declare-fun x_123 () Real)
(declare-fun x_124 () Real)
(declare-fun x_125 () Real)
(declare-fun x_126 () Bool)
(declare-fun x_127 () Real)
(declare-fun x_128 () Bool)
(declare-fun x_129 () Bool)
(declare-fun x_130 () Real)
(declare-fun x_131 () Bool)
(declare-fun x_132 () Real)
(declare-fun x_133 () Real)
(declare-fun x_134 () Real)
(declare-fun x_135 () Real)
(declare-fun x_136 () Real)
(declare-fun x_137 () Real)
(declare-fun x_138 () Real)
(declare-fun x_139 () Real)
(declare-fun x_140 () Bool)
(declare-fun x_141 () Real)
(declare-fun x_142 () Bool)
(declare-fun x_143 () Bool)
(declare-fun x_144 () Real)
(declare-fun x_145 () Bool)
(declare-fun x_146 () Real)
(declare-fun x_147 () Real)
(declare-fun x_148 () Real)
(declare-fun x_149 () Real)
(declare-fun x_150 () Real)
(declare-fun x_151 () Real)
(declare-fun x_152 () Real)
(declare-fun x_153 () Real)
(declare-fun x_154 () Bool)
(declare-fun x_155 () Real)
(declare-fun x_156 () Bool)
(declare-fun x_157 () Bool)
(declare-fun x_158 () Real)
(declare-fun x_159 () Bool)
(declare-fun x_160 () Real)
(declare-fun x_161 () Real)
(declare-fun x_162 () Real)
(declare-fun x_163 () Real)
(declare-fun x_164 () Real)
(declare-fun x_165 () Real)
(declare-fun x_166 () Real)
(declare-fun x_167 () Real)
(declare-fun x_168 () Bool)
(declare-fun x_169 () Real)
(declare-fun x_170 () Bool)
(declare-fun x_171 () Bool)
(declare-fun x_172 () Real)
(declare-fun x_173 () Bool)
(declare-fun x_174 () Real)
(declare-fun x_175 () Real)
(declare-fun x_176 () Real)
(declare-fun x_177 () Real)
(declare-fun x_178 () Real)
(declare-fun x_179 () Real)
(declare-fun x_180 () Real)
(declare-fun x_181 () Real)
(declare-fun x_182 () Bool)
(declare-fun x_183 () Real)
(declare-fun x_184 () Bool)
(declare-fun x_185 () Bool)
(declare-fun x_186 () Real)
(declare-fun x_187 () Bool)
(declare-fun x_188 () Real)
(declare-fun x_189 () Real)
(declare-fun x_190 () Real)
(declare-fun x_191 () Real)
(declare-fun x_192 () Real)
(declare-fun x_193 () Real)
(declare-fun x_194 () Real)
(declare-fun x_195 () Real)
(declare-fun x_196 () Bool)
(declare-fun x_197 () Real)
(declare-fun x_198 () Bool)
(declare-fun x_199 () Bool)
(declare-fun x_200 () Real)
(declare-fun x_201 () Bool)
(declare-fun x_202 () Real)
(declare-fun x_203 () Real)
(declare-fun x_204 () Real)
(declare-fun x_205 () Real)
(declare-fun x_206 () Real)
(declare-fun x_207 () Real)
(declare-fun x_208 () Real)
(declare-fun x_209 () Real)
(declare-fun x_210 () Bool)
(declare-fun x_211 () Real)
(declare-fun x_212 () Bool)
(declare-fun x_213 () Bool)
(declare-fun x_214 () Real)
(declare-fun x_215 () Bool)
(declare-fun x_216 () Real)
(declare-fun x_217 () Real)
(declare-fun x_218 () Real)
(declare-fun x_219 () Real)
(declare-fun x_220 () Real)
(declare-fun x_221 () Real)
(declare-fun x_222 () Real)
(declare-fun x_223 () Real)
(declare-fun x_224 () Bool)
(declare-fun x_225 () Real)
(declare-fun x_226 () Bool)
(declare-fun x_227 () Bool)
(declare-fun x_228 () Real)
(declare-fun x_229 () Bool)
(declare-fun x_230 () Real)
(declare-fun x_231 () Real)
(declare-fun x_232 () Real)
(declare-fun x_233 () Real)
(declare-fun x_234 () Real)
(declare-fun x_235 () Real)
(declare-fun x_236 () Real)
(declare-fun x_237 () Real)
(declare-fun x_238 () Bool)
(declare-fun x_239 () Real)
(declare-fun x_240 () Real)
(declare-fun x_241 () Bool)
(declare-fun x_242 () Bool)
(declare-fun x_243 () Bool)
(declare-fun x_244 () Bool)
(declare-fun x_245 () Real)
(declare-fun x_246 () Bool)
(declare-fun x_247 () Real)
(declare-fun x_248 () Real)
(declare-fun x_249 () Real)
(declare-fun x_250 () Real)
(assert (let ((?v_162 (= x_52 x_53)) (?v_163 (= x_54 x_55)) (?v_164 (= x_56 x_57)) (?v_160 (= x_58 x_59))) (let ((?v_165 (not ?v_160)) (?v_168 (= x_60 x_61)) (?v_157 (= x_62 x_63)) (?v_158 (= x_7 x_3)) (?v_161 (ite (<= x_54 x_58) x_54 x_58)) (?v_156 (ite (<= x_58 x_54) x_58 x_54)) (?v_149 (= x_79 x_52)) (?v_150 (= x_55 x_80)) (?v_151 (= x_81 x_56)) (?v_147 (= x_59 x_82))) (let ((?v_152 (not ?v_147)) (?v_155 (= x_83 x_60)) (?v_144 (= x_84 x_62)) (?v_145 (= x_11 x_7)) (?v_148 (ite (<= x_55 x_59) x_55 x_59)) (?v_143 (ite (<= x_59 x_55) x_59 x_55)) (?v_136 (= x_93 x_79)) (?v_137 (= x_80 x_94)) (?v_138 (= x_95 x_81)) (?v_134 (= x_82 x_96))) (let ((?v_139 (not ?v_134)) (?v_142 (= x_97 x_83)) (?v_131 (= x_98 x_84)) (?v_132 (= x_15 x_11)) (?v_135 (ite (<= x_80 x_82) x_80 x_82)) (?v_130 (ite (<= x_82 x_80) x_82 x_80)) (?v_123 (= x_107 x_93)) (?v_124 (= x_94 x_108)) (?v_125 (= x_109 x_95)) (?v_121 (= x_96 x_110))) (let ((?v_126 (not ?v_121)) (?v_129 (= x_111 x_97)) (?v_118 (= x_112 x_98)) (?v_119 (= x_19 x_15)) (?v_122 (ite (<= x_94 x_96) x_94 x_96)) (?v_117 (ite (<= x_96 x_94) x_96 x_94)) (?v_110 (= x_121 x_107)) (?v_111 (= x_108 x_122)) (?v_112 (= x_123 x_109)) (?v_108 (= x_110 x_124))) (let ((?v_113 (not ?v_108)) (?v_116 (= x_125 x_111)) (?v_105 (= x_126 x_112)) (?v_106 (= x_23 x_19)) (?v_109 (ite (<= x_108 x_110) x_108 x_110)) (?v_104 (ite (<= x_110 x_108) x_110 x_108)) (?v_97 (= x_135 x_121)) (?v_98 (= x_122 x_136)) (?v_99 (= x_137 x_123)) (?v_95 (= x_124 x_138))) (let ((?v_100 (not ?v_95)) (?v_103 (= x_139 x_125)) (?v_92 (= x_140 x_126)) (?v_93 (= x_27 x_23)) (?v_96 (ite (<= x_122 x_124) x_122 x_124)) (?v_91 (ite (<= x_124 x_122) x_124 x_122)) (?v_84 (= x_149 x_135)) (?v_85 (= x_136 x_150)) (?v_86 (= x_151 x_137)) (?v_82 (= x_138 x_152))) (let ((?v_87 (not ?v_82)) (?v_90 (= x_153 x_139)) (?v_79 (= x_154 x_140)) (?v_80 (= x_31 x_27)) (?v_83 (ite (<= x_136 x_138) x_136 x_138)) (?v_78 (ite (<= x_138 x_136) x_138 x_136)) (?v_71 (= x_163 x_149)) (?v_72 (= x_150 x_164)) (?v_73 (= x_165 x_151)) (?v_69 (= x_152 x_166))) (let ((?v_74 (not ?v_69)) (?v_77 (= x_167 x_153)) (?v_66 (= x_168 x_154)) (?v_67 (= x_35 x_31)) (?v_70 (ite (<= x_150 x_152) x_150 x_152)) (?v_65 (ite (<= x_152 x_150) x_152 x_150)) (?v_58 (= x_177 x_163)) (?v_59 (= x_164 x_178)) (?v_60 (= x_179 x_165)) (?v_56 (= x_166 x_180))) (let ((?v_61 (not ?v_56)) (?v_64 (= x_181 x_167)) (?v_53 (= x_182 x_168)) (?v_54 (= x_39 x_35)) (?v_57 (ite (<= x_164 x_166) x_164 x_166)) (?v_52 (ite (<= x_166 x_164) x_166 x_164)) (?v_45 (= x_191 x_177)) (?v_46 (= x_178 x_192)) (?v_47 (= x_193 x_179)) (?v_43 (= x_180 x_194))) (let ((?v_48 (not ?v_43)) (?v_51 (= x_195 x_181)) (?v_40 (= x_196 x_182)) (?v_41 (= x_43 x_39)) (?v_44 (ite (<= x_178 x_180) x_178 x_180)) (?v_39 (ite (<= x_180 x_178) x_180 x_178)) (?v_32 (= x_205 x_191)) (?v_33 (= x_192 x_206)) (?v_34 (= x_207 x_193)) (?v_30 (= x_194 x_208))) (let ((?v_35 (not ?v_30)) (?v_38 (= x_209 x_195)) (?v_27 (= x_210 x_196)) (?v_28 (= x_47 x_43)) (?v_31 (ite (<= x_192 x_194) x_192 x_194)) (?v_26 (ite (<= x_194 x_192) x_194 x_192)) (?v_19 (= x_219 x_205)) (?v_20 (= x_206 x_220)) (?v_21 (= x_221 x_207)) (?v_17 (= x_208 x_222))) (let ((?v_22 (not ?v_17)) (?v_25 (= x_223 x_209)) (?v_14 (= x_224 x_210)) (?v_15 (= x_51 x_47)) (?v_18 (ite (<= x_206 x_208) x_206 x_208)) (?v_13 (ite (<= x_208 x_206) x_208 x_206)) (?v_6 (= x_233 x_219)) (?v_7 (= x_220 x_234)) (?v_8 (= x_235 x_221)) (?v_4 (= x_222 x_236))) (let ((?v_9 (not ?v_4)) (?v_12 (= x_237 x_223)) (?v_1 (= x_238 x_224)) (?v_2 (= x_239 x_51)) (?v_5 (ite (<= x_220 x_222) x_220 x_222)) (?v_0 (ite (<= x_222 x_220) x_222 x_220)) (?v_3 (= x_242 x_49)) (?v_11 (= x_51 x_239)) (?v_16 (= x_49 x_45)) (?v_24 (= x_47 x_51)) (?v_29 (= x_45 x_41)) (?v_37 (= x_43 x_47)) (?v_42 (= x_41 x_37)) (?v_50 (= x_39 x_43)) (?v_55 (= x_37 x_33)) (?v_63 (= x_35 x_39)) (?v_68 (= x_33 x_29)) (?v_76 (= x_31 x_35)) (?v_81 (= x_29 x_25)) (?v_89 (= x_27 x_31)) (?v_94 (= x_25 x_21)) (?v_102 (= x_23 x_27)) (?v_107 (= x_21 x_17)) (?v_115 (= x_19 x_23)) (?v_120 (= x_17 x_13)) (?v_128 (= x_15 x_19)) (?v_133 (= x_13 x_9)) (?v_141 (= x_11 x_15)) (?v_146 (= x_9 x_5)) (?v_154 (= x_7 x_11)) (?v_159 (= x_5 x_1)) (?v_167 (= x_3 x_7))) (let ((?v_10 (+ ?v_5 x_66)) (?v_23 (+ ?v_18 x_66)) (?v_36 (+ ?v_31 x_66)) (?v_49 (+ ?v_44 x_66)) (?v_62 (+ ?v_57 x_66)) (?v_75 (+ ?v_70 x_66)) (?v_88 (+ ?v_83 x_66)) (?v_101 (+ ?v_96 x_66)) (?v_114 (+ ?v_109 x_66)) (?v_127 (+ ?v_122 x_66)) (?v_140 (+ ?v_135 x_66)) (?v_153 (+ ?v_148 x_66)) (?v_166 (+ ?v_161 x_66))) (and (and (and (and (and (and (and (and (and (and (and (and (and (and (and (and (and (and (and (and (and (and (and (and (and (and (and (and (and (and (and (and (and (and (and (and (and (and (and (and (and (and (and (and (and (and (and (and (and (and (and (and (and (and (and (and (and (and (and (and (and (and (and (and (and (and (and (and (and (and (and (and (and (and (> x_64 0) (> x_65 0)) (>= x_66 0)) (< x_66 x_64)) (< x_66 x_65)) (>= x_77 0)) (< x_77 x_64)) (< x_77 x_65)) (or (= x_48 x_49) (= x_50 x_51))) (or (= x_44 x_45) (= x_46 x_47))) (or (= x_40 x_41) (= x_42 x_43))) (or (= x_36 x_37) (= x_38 x_39))) (or (= x_32 x_33) (= x_34 x_35))) (or (= x_28 x_29) (= x_30 x_31))) (or (= x_24 x_25) (= x_26 x_27))) (or (= x_20 x_21) (= x_22 x_23))) (or (= x_16 x_17) (= x_18 x_19))) (or (= x_12 x_13) (= x_14 x_15))) (or (= x_8 x_9) (= x_10 x_11))) (or (= x_4 x_5) (= x_6 x_7))) (or (= x_0 x_1) (= x_2 x_3))) (or (and (and (and (and (and (and (and (and (and (= x_240 0) (= x_241 x_229)) (= ?v_0 x_222)) (<= (+ ?v_0 x_64) x_236)) (or ?v_3 (= x_242 x_48))) (= x_243 x_226)) (= x_244 x_227)) (= x_234 x_220)) ?v_1) ?v_2) (and (and (and (and (and (and (and (and (and (= x_240 1) (= x_244 x_226)) (= ?v_0 x_220)) (<= (+ ?v_0 x_65) x_234)) (or (and (and (= x_245 0) ?v_1) ?v_2) (and (and (= x_245 1) (= x_224 x_227)) (= x_238 (not x_224))))) (= x_246 x_229)) (= x_241 x_48)) (= x_247 x_50)) (= x_236 x_222)) ?v_3))) (or (or (and (and (and (= x_248 0) ?v_9) (or (not (<= x_219 ?v_5)) (= x_246 x_224))) ?v_6) (and (and (and (= x_248 1) ?v_4) (xor x_224 x_238)) (= x_233 ?v_10))) (and (and (and (= x_248 2) ?v_4) (= x_224 x_238)) ?v_6))) (or (or (and (and (and (= x_249 0) (not ?v_7)) (or (not (<= x_221 ?v_0)) (= x_243 x_49))) ?v_8) (and (and (and (= x_249 1) ?v_7) (xor x_49 x_242)) (= x_235 (+ ?v_0 x_77)))) (and (and (and (= x_249 2) ?v_7) (= x_49 x_242)) ?v_8))) (or (or (and (and (and (= x_250 0) ?v_9) (or (not (<= x_223 ?v_5)) (= x_247 x_51))) ?v_12) (and (and (and (= x_250 1) ?v_4) (not ?v_11)) (= x_237 ?v_10))) (and (and (and (= x_250 2) ?v_4) ?v_11) ?v_12))) (or (and (and (and (and (and (and (and (and (and (= x_225 0) (= x_48 x_215)) (= ?v_13 x_208)) (<= (+ ?v_13 x_64) x_222)) (or ?v_16 (= x_49 x_44))) (= x_226 x_212)) (= x_227 x_213)) (= x_220 x_206)) ?v_14) ?v_15) (and (and (and (and (and (and (and (and (and (= x_225 1) (= x_227 x_212)) (= ?v_13 x_206)) (<= (+ ?v_13 x_65) x_220)) (or (and (and (= x_228 0) ?v_14) ?v_15) (and (and (= x_228 1) (= x_210 x_213)) (= x_224 (not x_210))))) (= x_229 x_215)) (= x_48 x_44)) (= x_50 x_46)) (= x_222 x_208)) ?v_16))) (or (or (and (and (and (= x_230 0) ?v_22) (or (not (<= x_205 ?v_18)) (= x_229 x_210))) ?v_19) (and (and (and (= x_230 1) ?v_17) (xor x_210 x_224)) (= x_219 ?v_23))) (and (and (and (= x_230 2) ?v_17) (= x_210 x_224)) ?v_19))) (or (or (and (and (and (= x_231 0) (not ?v_20)) (or (not (<= x_207 ?v_13)) (= x_226 x_45))) ?v_21) (and (and (and (= x_231 1) ?v_20) (xor x_45 x_49)) (= x_221 (+ ?v_13 x_77)))) (and (and (and (= x_231 2) ?v_20) (= x_45 x_49)) ?v_21))) (or (or (and (and (and (= x_232 0) ?v_22) (or (not (<= x_209 ?v_18)) (= x_50 x_47))) ?v_25) (and (and (and (= x_232 1) ?v_17) (not ?v_24)) (= x_223 ?v_23))) (and (and (and (= x_232 2) ?v_17) ?v_24) ?v_25))) (or (and (and (and (and (and (and (and (and (and (= x_211 0) (= x_44 x_201)) (= ?v_26 x_194)) (<= (+ ?v_26 x_64) x_208)) (or ?v_29 (= x_45 x_40))) (= x_212 x_198)) (= x_213 x_199)) (= x_206 x_192)) ?v_27) ?v_28) (and (and (and (and (and (and (and (and (and (= x_211 1) (= x_213 x_198)) (= ?v_26 x_192)) (<= (+ ?v_26 x_65) x_206)) (or (and (and (= x_214 0) ?v_27) ?v_28) (and (and (= x_214 1) (= x_196 x_199)) (= x_210 (not x_196))))) (= x_215 x_201)) (= x_44 x_40)) (= x_46 x_42)) (= x_208 x_194)) ?v_29))) (or (or (and (and (and (= x_216 0) ?v_35) (or (not (<= x_191 ?v_31)) (= x_215 x_196))) ?v_32) (and (and (and (= x_216 1) ?v_30) (xor x_196 x_210)) (= x_205 ?v_36))) (and (and (and (= x_216 2) ?v_30) (= x_196 x_210)) ?v_32))) (or (or (and (and (and (= x_217 0) (not ?v_33)) (or (not (<= x_193 ?v_26)) (= x_212 x_41))) ?v_34) (and (and (and (= x_217 1) ?v_33) (xor x_41 x_45)) (= x_207 (+ ?v_26 x_77)))) (and (and (and (= x_217 2) ?v_33) (= x_41 x_45)) ?v_34))) (or (or (and (and (and (= x_218 0) ?v_35) (or (not (<= x_195 ?v_31)) (= x_46 x_43))) ?v_38) (and (and (and (= x_218 1) ?v_30) (not ?v_37)) (= x_209 ?v_36))) (and (and (and (= x_218 2) ?v_30) ?v_37) ?v_38))) (or (and (and (and (and (and (and (and (and (and (= x_197 0) (= x_40 x_187)) (= ?v_39 x_180)) (<= (+ ?v_39 x_64) x_194)) (or ?v_42 (= x_41 x_36))) (= x_198 x_184)) (= x_199 x_185)) (= x_192 x_178)) ?v_40) ?v_41) (and (and (and (and (and (and (and (and (and (= x_197 1) (= x_199 x_184)) (= ?v_39 x_178)) (<= (+ ?v_39 x_65) x_192)) (or (and (and (= x_200 0) ?v_40) ?v_41) (and (and (= x_200 1) (= x_182 x_185)) (= x_196 (not x_182))))) (= x_201 x_187)) (= x_40 x_36)) (= x_42 x_38)) (= x_194 x_180)) ?v_42))) (or (or (and (and (and (= x_202 0) ?v_48) (or (not (<= x_177 ?v_44)) (= x_201 x_182))) ?v_45) (and (and (and (= x_202 1) ?v_43) (xor x_182 x_196)) (= x_191 ?v_49))) (and (and (and (= x_202 2) ?v_43) (= x_182 x_196)) ?v_45))) (or (or (and (and (and (= x_203 0) (not ?v_46)) (or (not (<= x_179 ?v_39)) (= x_198 x_37))) ?v_47) (and (and (and (= x_203 1) ?v_46) (xor x_37 x_41)) (= x_193 (+ ?v_39 x_77)))) (and (and (and (= x_203 2) ?v_46) (= x_37 x_41)) ?v_47))) (or (or (and (and (and (= x_204 0) ?v_48) (or (not (<= x_181 ?v_44)) (= x_42 x_39))) ?v_51) (and (and (and (= x_204 1) ?v_43) (not ?v_50)) (= x_195 ?v_49))) (and (and (and (= x_204 2) ?v_43) ?v_50) ?v_51))) (or (and (and (and (and (and (and (and (and (and (= x_183 0) (= x_36 x_173)) (= ?v_52 x_166)) (<= (+ ?v_52 x_64) x_180)) (or ?v_55 (= x_37 x_32))) (= x_184 x_170)) (= x_185 x_171)) (= x_178 x_164)) ?v_53) ?v_54) (and (and (and (and (and (and (and (and (and (= x_183 1) (= x_185 x_170)) (= ?v_52 x_164)) (<= (+ ?v_52 x_65) x_178)) (or (and (and (= x_186 0) ?v_53) ?v_54) (and (and (= x_186 1) (= x_168 x_171)) (= x_182 (not x_168))))) (= x_187 x_173)) (= x_36 x_32)) (= x_38 x_34)) (= x_180 x_166)) ?v_55))) (or (or (and (and (and (= x_188 0) ?v_61) (or (not (<= x_163 ?v_57)) (= x_187 x_168))) ?v_58) (and (and (and (= x_188 1) ?v_56) (xor x_168 x_182)) (= x_177 ?v_62))) (and (and (and (= x_188 2) ?v_56) (= x_168 x_182)) ?v_58))) (or (or (and (and (and (= x_189 0) (not ?v_59)) (or (not (<= x_165 ?v_52)) (= x_184 x_33))) ?v_60) (and (and (and (= x_189 1) ?v_59) (xor x_33 x_37)) (= x_179 (+ ?v_52 x_77)))) (and (and (and (= x_189 2) ?v_59) (= x_33 x_37)) ?v_60))) (or (or (and (and (and (= x_190 0) ?v_61) (or (not (<= x_167 ?v_57)) (= x_38 x_35))) ?v_64) (and (and (and (= x_190 1) ?v_56) (not ?v_63)) (= x_181 ?v_62))) (and (and (and (= x_190 2) ?v_56) ?v_63) ?v_64))) (or (and (and (and (and (and (and (and (and (and (= x_169 0) (= x_32 x_159)) (= ?v_65 x_152)) (<= (+ ?v_65 x_64) x_166)) (or ?v_68 (= x_33 x_28))) (= x_170 x_156)) (= x_171 x_157)) (= x_164 x_150)) ?v_66) ?v_67) (and (and (and (and (and (and (and (and (and (= x_169 1) (= x_171 x_156)) (= ?v_65 x_150)) (<= (+ ?v_65 x_65) x_164)) (or (and (and (= x_172 0) ?v_66) ?v_67) (and (and (= x_172 1) (= x_154 x_157)) (= x_168 (not x_154))))) (= x_173 x_159)) (= x_32 x_28)) (= x_34 x_30)) (= x_166 x_152)) ?v_68))) (or (or (and (and (and (= x_174 0) ?v_74) (or (not (<= x_149 ?v_70)) (= x_173 x_154))) ?v_71) (and (and (and (= x_174 1) ?v_69) (xor x_154 x_168)) (= x_163 ?v_75))) (and (and (and (= x_174 2) ?v_69) (= x_154 x_168)) ?v_71))) (or (or (and (and (and (= x_175 0) (not ?v_72)) (or (not (<= x_151 ?v_65)) (= x_170 x_29))) ?v_73) (and (and (and (= x_175 1) ?v_72) (xor x_29 x_33)) (= x_165 (+ ?v_65 x_77)))) (and (and (and (= x_175 2) ?v_72) (= x_29 x_33)) ?v_73))) (or (or (and (and (and (= x_176 0) ?v_74) (or (not (<= x_153 ?v_70)) (= x_34 x_31))) ?v_77) (and (and (and (= x_176 1) ?v_69) (not ?v_76)) (= x_167 ?v_75))) (and (and (and (= x_176 2) ?v_69) ?v_76) ?v_77))) (or (and (and (and (and (and (and (and (and (and (= x_155 0) (= x_28 x_145)) (= ?v_78 x_138)) (<= (+ ?v_78 x_64) x_152)) (or ?v_81 (= x_29 x_24))) (= x_156 x_142)) (= x_157 x_143)) (= x_150 x_136)) ?v_79) ?v_80) (and (and (and (and (and (and (and (and (and (= x_155 1) (= x_157 x_142)) (= ?v_78 x_136)) (<= (+ ?v_78 x_65) x_150)) (or (and (and (= x_158 0) ?v_79) ?v_80) (and (and (= x_158 1) (= x_140 x_143)) (= x_154 (not x_140))))) (= x_159 x_145)) (= x_28 x_24)) (= x_30 x_26)) (= x_152 x_138)) ?v_81))) (or (or (and (and (and (= x_160 0) ?v_87) (or (not (<= x_135 ?v_83)) (= x_159 x_140))) ?v_84) (and (and (and (= x_160 1) ?v_82) (xor x_140 x_154)) (= x_149 ?v_88))) (and (and (and (= x_160 2) ?v_82) (= x_140 x_154)) ?v_84))) (or (or (and (and (and (= x_161 0) (not ?v_85)) (or (not (<= x_137 ?v_78)) (= x_156 x_25))) ?v_86) (and (and (and (= x_161 1) ?v_85) (xor x_25 x_29)) (= x_151 (+ ?v_78 x_77)))) (and (and (and (= x_161 2) ?v_85) (= x_25 x_29)) ?v_86))) (or (or (and (and (and (= x_162 0) ?v_87) (or (not (<= x_139 ?v_83)) (= x_30 x_27))) ?v_90) (and (and (and (= x_162 1) ?v_82) (not ?v_89)) (= x_153 ?v_88))) (and (and (and (= x_162 2) ?v_82) ?v_89) ?v_90))) (or (and (and (and (and (and (and (and (and (and (= x_141 0) (= x_24 x_131)) (= ?v_91 x_124)) (<= (+ ?v_91 x_64) x_138)) (or ?v_94 (= x_25 x_20))) (= x_142 x_128)) (= x_143 x_129)) (= x_136 x_122)) ?v_92) ?v_93) (and (and (and (and (and (and (and (and (and (= x_141 1) (= x_143 x_128)) (= ?v_91 x_122)) (<= (+ ?v_91 x_65) x_136)) (or (and (and (= x_144 0) ?v_92) ?v_93) (and (and (= x_144 1) (= x_126 x_129)) (= x_140 (not x_126))))) (= x_145 x_131)) (= x_24 x_20)) (= x_26 x_22)) (= x_138 x_124)) ?v_94))) (or (or (and (and (and (= x_146 0) ?v_100) (or (not (<= x_121 ?v_96)) (= x_145 x_126))) ?v_97) (and (and (and (= x_146 1) ?v_95) (xor x_126 x_140)) (= x_135 ?v_101))) (and (and (and (= x_146 2) ?v_95) (= x_126 x_140)) ?v_97))) (or (or (and (and (and (= x_147 0) (not ?v_98)) (or (not (<= x_123 ?v_91)) (= x_142 x_21))) ?v_99) (and (and (and (= x_147 1) ?v_98) (xor x_21 x_25)) (= x_137 (+ ?v_91 x_77)))) (and (and (and (= x_147 2) ?v_98) (= x_21 x_25)) ?v_99))) (or (or (and (and (and (= x_148 0) ?v_100) (or (not (<= x_125 ?v_96)) (= x_26 x_23))) ?v_103) (and (and (and (= x_148 1) ?v_95) (not ?v_102)) (= x_139 ?v_101))) (and (and (and (= x_148 2) ?v_95) ?v_102) ?v_103))) (or (and (and (and (and (and (and (and (and (and (= x_127 0) (= x_20 x_117)) (= ?v_104 x_110)) (<= (+ ?v_104 x_64) x_124)) (or ?v_107 (= x_21 x_16))) (= x_128 x_114)) (= x_129 x_115)) (= x_122 x_108)) ?v_105) ?v_106) (and (and (and (and (and (and (and (and (and (= x_127 1) (= x_129 x_114)) (= ?v_104 x_108)) (<= (+ ?v_104 x_65) x_122)) (or (and (and (= x_130 0) ?v_105) ?v_106) (and (and (= x_130 1) (= x_112 x_115)) (= x_126 (not x_112))))) (= x_131 x_117)) (= x_20 x_16)) (= x_22 x_18)) (= x_124 x_110)) ?v_107))) (or (or (and (and (and (= x_132 0) ?v_113) (or (not (<= x_107 ?v_109)) (= x_131 x_112))) ?v_110) (and (and (and (= x_132 1) ?v_108) (xor x_112 x_126)) (= x_121 ?v_114))) (and (and (and (= x_132 2) ?v_108) (= x_112 x_126)) ?v_110))) (or (or (and (and (and (= x_133 0) (not ?v_111)) (or (not (<= x_109 ?v_104)) (= x_128 x_17))) ?v_112) (and (and (and (= x_133 1) ?v_111) (xor x_17 x_21)) (= x_123 (+ ?v_104 x_77)))) (and (and (and (= x_133 2) ?v_111) (= x_17 x_21)) ?v_112))) (or (or (and (and (and (= x_134 0) ?v_113) (or (not (<= x_111 ?v_109)) (= x_22 x_19))) ?v_116) (and (and (and (= x_134 1) ?v_108) (not ?v_115)) (= x_125 ?v_114))) (and (and (and (= x_134 2) ?v_108) ?v_115) ?v_116))) (or (and (and (and (and (and (and (and (and (and (= x_113 0) (= x_16 x_103)) (= ?v_117 x_96)) (<= (+ ?v_117 x_64) x_110)) (or ?v_120 (= x_17 x_12))) (= x_114 x_100)) (= x_115 x_101)) (= x_108 x_94)) ?v_118) ?v_119) (and (and (and (and (and (and (and (and (and (= x_113 1) (= x_115 x_100)) (= ?v_117 x_94)) (<= (+ ?v_117 x_65) x_108)) (or (and (and (= x_116 0) ?v_118) ?v_119) (and (and (= x_116 1) (= x_98 x_101)) (= x_112 (not x_98))))) (= x_117 x_103)) (= x_16 x_12)) (= x_18 x_14)) (= x_110 x_96)) ?v_120))) (or (or (and (and (and (= x_118 0) ?v_126) (or (not (<= x_93 ?v_122)) (= x_117 x_98))) ?v_123) (and (and (and (= x_118 1) ?v_121) (xor x_98 x_112)) (= x_107 ?v_127))) (and (and (and (= x_118 2) ?v_121) (= x_98 x_112)) ?v_123))) (or (or (and (and (and (= x_119 0) (not ?v_124)) (or (not (<= x_95 ?v_117)) (= x_114 x_13))) ?v_125) (and (and (and (= x_119 1) ?v_124) (xor x_13 x_17)) (= x_109 (+ ?v_117 x_77)))) (and (and (and (= x_119 2) ?v_124) (= x_13 x_17)) ?v_125))) (or (or (and (and (and (= x_120 0) ?v_126) (or (not (<= x_97 ?v_122)) (= x_18 x_15))) ?v_129) (and (and (and (= x_120 1) ?v_121) (not ?v_128)) (= x_111 ?v_127))) (and (and (and (= x_120 2) ?v_121) ?v_128) ?v_129))) (or (and (and (and (and (and (and (and (and (and (= x_99 0) (= x_12 x_89)) (= ?v_130 x_82)) (<= (+ ?v_130 x_64) x_96)) (or ?v_133 (= x_13 x_8))) (= x_100 x_86)) (= x_101 x_87)) (= x_94 x_80)) ?v_131) ?v_132) (and (and (and (and (and (and (and (and (and (= x_99 1) (= x_101 x_86)) (= ?v_130 x_80)) (<= (+ ?v_130 x_65) x_94)) (or (and (and (= x_102 0) ?v_131) ?v_132) (and (and (= x_102 1) (= x_84 x_87)) (= x_98 (not x_84))))) (= x_103 x_89)) (= x_12 x_8)) (= x_14 x_10)) (= x_96 x_82)) ?v_133))) (or (or (and (and (and (= x_104 0) ?v_139) (or (not (<= x_79 ?v_135)) (= x_103 x_84))) ?v_136) (and (and (and (= x_104 1) ?v_134) (xor x_84 x_98)) (= x_93 ?v_140))) (and (and (and (= x_104 2) ?v_134) (= x_84 x_98)) ?v_136))) (or (or (and (and (and (= x_105 0) (not ?v_137)) (or (not (<= x_81 ?v_130)) (= x_100 x_9))) ?v_138) (and (and (and (= x_105 1) ?v_137) (xor x_9 x_13)) (= x_95 (+ ?v_130 x_77)))) (and (and (and (= x_105 2) ?v_137) (= x_9 x_13)) ?v_138))) (or (or (and (and (and (= x_106 0) ?v_139) (or (not (<= x_83 ?v_135)) (= x_14 x_11))) ?v_142) (and (and (and (= x_106 1) ?v_134) (not ?v_141)) (= x_97 ?v_140))) (and (and (and (= x_106 2) ?v_134) ?v_141) ?v_142))) (or (and (and (and (and (and (and (and (and (and (= x_85 0) (= x_8 x_74)) (= ?v_143 x_59)) (<= (+ ?v_143 x_64) x_82)) (or ?v_146 (= x_9 x_4))) (= x_86 x_69)) (= x_87 x_71)) (= x_80 x_55)) ?v_144) ?v_145) (and (and (and (and (and (and (and (and (and (= x_85 1) (= x_87 x_69)) (= ?v_143 x_55)) (<= (+ ?v_143 x_65) x_80)) (or (and (and (= x_88 0) ?v_144) ?v_145) (and (and (= x_88 1) (= x_62 x_71)) (= x_84 (not x_62))))) (= x_89 x_74)) (= x_8 x_4)) (= x_10 x_6)) (= x_82 x_59)) ?v_146))) (or (or (and (and (and (= x_90 0) ?v_152) (or (not (<= x_52 ?v_148)) (= x_89 x_62))) ?v_149) (and (and (and (= x_90 1) ?v_147) (xor x_62 x_84)) (= x_79 ?v_153))) (and (and (and (= x_90 2) ?v_147) (= x_62 x_84)) ?v_149))) (or (or (and (and (and (= x_91 0) (not ?v_150)) (or (not (<= x_56 ?v_143)) (= x_86 x_5))) ?v_151) (and (and (and (= x_91 1) ?v_150) (xor x_5 x_9)) (= x_81 (+ ?v_143 x_77)))) (and (and (and (= x_91 2) ?v_150) (= x_5 x_9)) ?v_151))) (or (or (and (and (and (= x_92 0) ?v_152) (or (not (<= x_60 ?v_148)) (= x_10 x_7))) ?v_155) (and (and (and (= x_92 1) ?v_147) (not ?v_154)) (= x_83 ?v_153))) (and (and (and (= x_92 2) ?v_147) ?v_154) ?v_155))) (or (and (and (and (and (and (and (and (and (and (= x_67 0) (= x_4 x_68)) (= ?v_156 x_58)) (<= (+ ?v_156 x_64) x_59)) (or ?v_159 (= x_5 x_0))) (= x_69 x_70)) (= x_71 x_72)) (= x_55 x_54)) ?v_157) ?v_158) (and (and (and (and (and (and (and (and (and (= x_67 1) (= x_71 x_70)) (= ?v_156 x_54)) (<= (+ ?v_156 x_65) x_55)) (or (and (and (= x_73 0) ?v_157) ?v_158) (and (and (= x_73 1) (= x_63 x_72)) (= x_62 (not x_63))))) (= x_74 x_68)) (= x_4 x_0)) (= x_6 x_2)) (= x_59 x_58)) ?v_159))) (or (or (and (and (and (= x_75 0) ?v_165) (or (not (<= x_53 ?v_161)) (= x_74 x_63))) ?v_162) (and (and (and (= x_75 1) ?v_160) (xor x_63 x_62)) (= x_52 ?v_166))) (and (and (and (= x_75 2) ?v_160) (= x_63 x_62)) ?v_162))) (or (or (and (and (and (= x_76 0) (not ?v_163)) (or (not (<= x_57 ?v_156)) (= x_69 x_1))) ?v_164) (and (and (and (= x_76 1) ?v_163) (xor x_1 x_5)) (= x_56 (+ ?v_156 x_77)))) (and (and (and (= x_76 2) ?v_163) (= x_1 x_5)) ?v_164))) (or (or (and (and (and (= x_78 0) ?v_165) (or (not (<= x_61 ?v_161)) (= x_6 x_3))) ?v_168) (and (and (and (= x_78 1) ?v_160) (not ?v_167)) (= x_60 ?v_166))) (and (and (and (= x_78 2) ?v_160) ?v_167) ?v_168))) (xor x_241 x_242)) (not (= x_247 x_239)))))))))))))))))))
(check-sat)
(exit)
